(set-logic ALL)
(set-option :produce-models true)
(declare-sort BoundSet 0)
(declare-sort UnboundSet 0)
(declare-fun b () UnboundSet)
(declare-fun c () UnboundSet)
(declare-fun e () UnboundSet)
(declare-fun d () UnboundSet)
(declare-fun IsGiven (BoundSet UnboundSet) Bool)
(declare-fun IsInLimbo (UnboundSet) Bool)
(declare-fun IsInHeaven (UnboundSet) Bool)
(declare-fun IsLivedLike (BoundSet UnboundSet) Bool)
(declare-fun IsGood (BoundSet) Bool)
(declare-fun IsBeautiful (UnboundSet) Bool)
(declare-fun IsAPlace (BoundSet) Bool)
(declare-fun ~IsLiked (BoundSet BoundSet) Bool)
(declare-fun IsHappy (UnboundSet) Bool)
(declare-fun IsWornBy (UnboundSet) Bool)
(declare-fun IsPartOfFamily (BoundSet) Bool)
(assert (not (IsPartOfFamily e)))
(check-sat)
(get-model)